(set-logic HORN)
(declare-fun state (Int Int Int Int Int Int Int Bool Int (Array Int Int) (Array Int Int) (Array Int Int) (Array Int Int) (Array Int Int) (Array Int Int) Int) Bool)
(assert (forall ((|A| Int) (|B| Int) (|C| Int) (|D| Int) (|F| Int) (|M| Int) (|.y.2| Int) (|.loc.3| Bool) (|K| Int) (|E.1| (Array Int Int)) (|H| (Array Int Int)) (|E_1.1| (Array Int Int)) (|H_1| (Array Int Int)) (|H_2| (Array Int Int)) (|E_2.1| (Array Int Int)) (|K_1| Int) (|.x.6| Int) (|.x.5| Int) (|.x.4| Int) (|.x.3| Int) (|.x.2| Int) (|.x.1| Int) (|.loc.4| Bool) (|G| Int) (|.xtv.1| Int) (|.xtv.2| (Array Int Int)) (|.xtv.3| (Array Int Int)) (|.xiv.1| (Array Int Int)) (|.xiv.2| (Array Int Int)) (|.xpv.1| (Array Int Int)) (|.xpv.2| (Array Int Int)) (|.xpv.3| Int)) (=> (and (and (and (and (and (not (= (select E_1.1 F) 0)) (= D (select H_1 D))) (= C (select H_1 C))) (= A (select H_1 A))) (= (select E_1.1 B) 0)) (not .loc.3)) (state |A| |B| |C| |D| |F| |M| |.y.2| |.loc.3| |K| |E.1| |H| |E_1.1| |H_1| |H_2| |E_2.1| |K_1|))))
(assert (forall ((|A| Int) (|B| Int) (|C| Int) (|D| Int) (|F| Int) (|M| Int) (|.y.2| Int) (|.loc.3| Bool) (|K| Int) (|E.1| (Array Int Int)) (|H| (Array Int Int)) (|E_1.1| (Array Int Int)) (|H_1| (Array Int Int)) (|H_2| (Array Int Int)) (|E_2.1| (Array Int Int)) (|K_1| Int) (|.x.6| Int) (|.x.5| Int) (|.x.4| Int) (|.x.3| Int) (|.x.2| Int) (|.x.1| Int) (|.loc.4| Bool) (|G| Int) (|.xtv.1| Int) (|.xtv.2| (Array Int Int)) (|.xtv.3| (Array Int Int)) (|.xiv.1| (Array Int Int)) (|.xiv.2| (Array Int Int)) (|.xpv.1| (Array Int Int)) (|.xpv.2| (Array Int Int)) (|.xpv.3| Int)) (=> (and (state |A| |B| |C| |D| |F| |M| |.y.2| |.loc.3| |K| |E.1| |H| |E_1.1| |H_1| |H_2| |E_2.1| |K_1|) (let ((.def_46 (= (select E.1 K) 0))) (let ((.def_47 (not .def_46))) (and (and (and (not .loc.3) (and (= (<= 0 M) .def_47) (and (= M .x.6) (and (= F .x.5) (and (= D .x.4) (and (= C .x.3) (and (= B .x.2) (and (= A .x.1) (and (not (= (select E.1 F) 0)) (and (= (select E.1 B) 0) (and (= A (select H A)) (and (= D (select H D)) (= C (select H C)))))))))))))) .loc.4) (or (and .def_46 (= (+ M G) 0)) (and .def_47 (not (<= G M)))))))) (state |.x.1| |.x.2| |.x.3| |.x.4| |.x.5| |G| |.x.6| |.loc.4| |.xtv.1| |.xtv.2| |.xtv.3| |.xiv.1| |.xiv.2| |.xpv.1| |.xpv.2| |.xpv.3|))))
(assert (forall ((|A| Int) (|B| Int) (|C| Int) (|D| Int) (|F| Int) (|M| Int) (|.y.2| Int) (|.loc.3| Bool) (|K| Int) (|E.1| (Array Int Int)) (|H| (Array Int Int)) (|E_1.1| (Array Int Int)) (|H_1| (Array Int Int)) (|H_2| (Array Int Int)) (|E_2.1| (Array Int Int)) (|K_1| Int) (|.x.6| Int) (|.x.5| Int) (|.x.4| Int) (|.x.3| Int) (|.x.2| Int) (|.x.1| Int) (|.loc.4| Bool) (|G| Int) (|.xtv.1| Int) (|.xtv.2| (Array Int Int)) (|.xtv.3| (Array Int Int)) (|.xiv.1| (Array Int Int)) (|.xiv.2| (Array Int Int)) (|.xpv.1| (Array Int Int)) (|.xpv.2| (Array Int Int)) (|.xpv.3| Int)) (=> (state |A| |B| |C| |D| |F| |M| |.y.2| |.loc.3| |K| |E.1| |H| |E_1.1| |H_1| |H_2| |E_2.1| |K_1|) (let ((.def_96 (= (select E_2.1 K_1) 0))) (let ((.def_98 (= (<= 0 M) (not .def_96)))) (not (and .loc.3 (and .def_98 (and (and (and (and (and (and .def_96 .def_98) (not (= (select E_2.1 F) 0))) (= (select E_2.1 B) 0)) (= D (select H_2 D))) (= C (select H_2 C))) (= A (select H_2 A)))))))))))
(check-sat)
